(set-logic LIA)
(synth-fun next ((brake Int) (distance Int) (speed Int) (throttle Int) (ignition Bool) (time Int) ) Int
	((Start Int) (Var Int) (StartBool Bool))
	((Start Int (
				 5
				 6
				 (ite StartBool Start Start)))

	(Var Int (
			 0
			 1
			 2
			 608
			 792
			 brake
			 distance
			 speed
			 throttle
			 time
			 (+ Var Var)						
			 (- Var Var)						
			 (* Var Var)))

	(StartBool Bool (
				 	 ignition
					(= Var Var)						
					(>= Var Var)						
					(<= Var Var)						
					(and StartBool StartBool)			
					(or  StartBool StartBool)				
					(not StartBool)))))

(constraint (= (next 2 0 0 0 true 475 ) 5))
(constraint (= (next 3 0 0 0 true 1311 ) 5))
(constraint (= (next 0 1 2 0 true 93 ) 6))
(constraint (= (next 0 2 5 1 true 1291 ) 5))

(check-synth)
